(set-logic HORN)
(declare-fun state (Int Int (Array Int Int) Int (Array Int Int) Bool Bool Int Int) Bool)
(assert (forall ((|main@%x.0.i_0_1| Int) (|main@%a1.i_0_3| Int) (|main@%_1_0_3| (Array Int Int)) (|main@%a2.i_0_3| Int) (|main@%_0_0_3| (Array Int Int)) (|.loc.8| Bool) (|.loc.9| Bool) (|main@%_11_0_0| Int) (|main@%_9_0_0| Int) (|.loc.15| Bool) (|.y.10| Int) (|.y.11| Int) (|.y.12| (Array Int Int)) (|.y.13| Int) (|.y.14| (Array Int Int)) (|.loc.16| Bool) (|.xtv.1| Int) (|.xtv.2| Int)) (=> (and (not .loc.8) (not .loc.9)) (state |main@%x.0.i_0_1| |main@%a1.i_0_3| |main@%_1_0_3| |main@%a2.i_0_3| |main@%_0_0_3| |.loc.8| |.loc.9| |main@%_11_0_0| |main@%_9_0_0|))))
(assert (forall ((|main@%x.0.i_0_1| Int) (|main@%a1.i_0_3| Int) (|main@%_1_0_3| (Array Int Int)) (|main@%a2.i_0_3| Int) (|main@%_0_0_3| (Array Int Int)) (|.loc.8| Bool) (|.loc.9| Bool) (|main@%_11_0_0| Int) (|main@%_9_0_0| Int) (|.loc.15| Bool) (|.y.10| Int) (|.y.11| Int) (|.y.12| (Array Int Int)) (|.y.13| Int) (|.y.14| (Array Int Int)) (|.loc.16| Bool) (|.xtv.1| Int) (|.xtv.2| Int)) (=> (and (state |main@%x.0.i_0_1| |main@%a1.i_0_3| |main@%_1_0_3| |main@%a2.i_0_3| |main@%_0_0_3| |.loc.8| |.loc.9| |main@%_11_0_0| |main@%_9_0_0|) (let ((.def_19 (not .loc.8))) (let ((.def_20 (not .loc.9))) (let ((.def_24 (= (select main@%_1_0_3 main@%_9_0_0) (select main@%_0_0_3 main@%_11_0_0)))) (let ((.def_27 (<= main@%a2.i_0_3 0))) (let ((.def_38 (<= main@%a1.i_0_3 0))) (let ((.def_48 (<= 100000 main@%x.0.i_0_1))) (let ((.def_49 (not .def_48))) (let ((.def_55 (and (not .def_27) (and (or .def_27 (not (<= main@%_11_0_0 0))) (and (= (+ main@%x.0.i_0_1 (+ main@%a2.i_0_3 (* (- 1) main@%_11_0_0))) 0) (and (not .def_38) (and (or .def_38 (not (<= main@%_9_0_0 0))) (and (= (+ main@%x.0.i_0_1 (+ main@%a1.i_0_3 (* (- 1) main@%_9_0_0))) 0) .def_49)))))))) (let ((.def_62 (not .loc.15))) (let ((.def_66 (= .y.10 0))) (let ((.def_69 (= main@%a1.i_0_3 .y.11))) (let ((.def_72 (= main@%_1_0_3 .y.12))) (let ((.def_75 (= main@%a2.i_0_3 .y.13))) (let ((.def_78 (= main@%_0_0_3 .y.14))) (let ((.def_91 (= (+ main@%x.0.i_0_1 (* (- 1) .y.10)) (- 1)))) (let ((.def_103 (not .loc.16))) (or (or (and (or (or (and (and .def_19 (and .loc.9 (and (not .def_24) .def_55))) .loc.15) (and (and (and (and (and (and .def_20 (and (and .loc.8 .def_48) .def_62)) .def_66) .def_69) .def_72) .def_75) .def_78)) (and (and .def_78 (and .def_75 (and .def_72 (and .def_69 (and .def_62 (and .def_19 (and .loc.9 (and .def_24 .def_55)))))))) .def_91)) .loc.16) (and (not (<= .y.11 0)) (and (not (<= .y.13 0)) (and (and .def_66 (and .def_20 (and .def_19 .loc.15))) .def_103)))) (and .def_103 (and .def_91 (and .def_78 (and .def_75 (and .def_72 (and .def_69 (and .def_20 (and .loc.15 (and .loc.8 .def_49))))))))))))))))))))))))))) (state |.y.10| |.y.11| |.y.12| |.y.13| |.y.14| |.loc.15| |.loc.16| |.xtv.1| |.xtv.2|))))
(assert (forall ((|main@%x.0.i_0_1| Int) (|main@%a1.i_0_3| Int) (|main@%_1_0_3| (Array Int Int)) (|main@%a2.i_0_3| Int) (|main@%_0_0_3| (Array Int Int)) (|.loc.8| Bool) (|.loc.9| Bool) (|main@%_11_0_0| Int) (|main@%_9_0_0| Int) (|.loc.15| Bool) (|.y.10| Int) (|.y.11| Int) (|.y.12| (Array Int Int)) (|.y.13| Int) (|.y.14| (Array Int Int)) (|.loc.16| Bool) (|.xtv.1| Int) (|.xtv.2| Int)) (=> (state |main@%x.0.i_0_1| |main@%a1.i_0_3| |main@%_1_0_3| |main@%a2.i_0_3| |main@%_0_0_3| |.loc.8| |.loc.9| |main@%_11_0_0| |main@%_9_0_0|) (not (and .loc.8 .loc.9)))))
(check-sat)
